NAME : 0.52459.tour
COMMENT : Length = 52459
COMMENT : Found by LKH-3 [Keld Helsgaun] Tue Apr  9 01:53:14 2024
TYPE : TOUR
DIMENSION : 55
TOUR_SECTION
1
28
49
24
8
44
25
26
15
7
54
48
5
18
43
20
41
42
14
19
52
12
3
30
22
17
51
35
31
10
39
55
33
2
23
21
36
37
4
29
32
27
9
53
13
38
45
16
46
34
40
11
50
6
47
-1
EOF
